c Generated map
c Size: 12 * 12, weights in range: 1 to 10, walls: False, with ratio 0.0
c dim 2 of 5
c
p sp 144 264
c graph contains 144 nodes and 264 arcs
c
a 1 13 3
a 13 1 3
a 1 2 9
a 2 1 9
a 2 14 6
a 14 2 6
a 2 3 1
a 3 2 1
a 3 15 3
a 15 3 3
a 3 4 8
a 4 3 8
a 4 16 4
a 16 4 4
a 4 5 1
a 5 4 1
a 5 17 3
a 17 5 3
a 5 6 9
a 6 5 9
a 6 18 8
a 18 6 8
a 6 7 4
a 7 6 4
a 7 19 10
a 19 7 10
a 7 8 4
a 8 7 4
a 8 20 9
a 20 8 9
a 8 9 10
a 9 8 10
a 9 21 9
a 21 9 9
a 9 10 7
a 10 9 7
a 10 22 8
a 22 10 8
a 10 11 1
a 11 10 1
a 11 23 5
a 23 11 5
a 11 12 2
a 12 11 2
a 12 24 6
a 24 12 6
a 13 25 7
a 25 13 7
a 13 14 9
a 14 13 9
a 14 26 5
a 26 14 5
a 14 15 7
a 15 14 7
a 15 27 2
a 27 15 2
a 15 16 7
a 16 15 7
a 16 28 10
a 28 16 10
a 16 17 10
a 17 16 10
a 17 29 10
a 29 17 10
a 17 18 2
a 18 17 2
a 18 30 1
a 30 18 1
a 18 19 10
a 19 18 10
a 19 31 8
a 31 19 8
a 19 20 2
a 20 19 2
a 20 32 9
a 32 20 9
a 20 21 7
a 21 20 7
a 21 33 3
a 33 21 3
a 21 22 1
a 22 21 1
a 22 34 6
a 34 22 6
a 22 23 8
a 23 22 8
a 23 35 10
a 35 23 10
a 23 24 2
a 24 23 2
a 24 36 3
a 36 24 3
a 25 37 2
a 37 25 2
a 25 26 3
a 26 25 3
a 26 38 2
a 38 26 2
a 26 27 2
a 27 26 2
a 27 39 1
a 39 27 1
a 27 28 2
a 28 27 2
a 28 40 8
a 40 28 8
a 28 29 1
a 29 28 1
a 29 41 1
a 41 29 1
a 29 30 6
a 30 29 6
a 30 42 7
a 42 30 7
a 30 31 4
a 31 30 4
a 31 43 5
a 43 31 5
a 31 32 5
a 32 31 5
a 32 44 10
a 44 32 10
a 32 33 3
a 33 32 3
a 33 45 1
a 45 33 1
a 33 34 10
a 34 33 10
a 34 46 9
a 46 34 9
a 34 35 10
a 35 34 10
a 35 47 4
a 47 35 4
a 35 36 1
a 36 35 1
a 36 48 2
a 48 36 2
a 37 49 5
a 49 37 5
a 37 38 1
a 38 37 1
a 38 50 10
a 50 38 10
a 38 39 1
a 39 38 1
a 39 51 10
a 51 39 10
a 39 40 5
a 40 39 5
a 40 52 8
a 52 40 8
a 40 41 1
a 41 40 1
a 41 53 4
a 53 41 4
a 41 42 1
a 42 41 1
a 42 54 3
a 54 42 3
a 42 43 7
a 43 42 7
a 43 55 6
a 55 43 6
a 43 44 9
a 44 43 9
a 44 56 3
a 56 44 3
a 44 45 7
a 45 44 7
a 45 57 6
a 57 45 6
a 45 46 4
a 46 45 4
a 46 58 10
a 58 46 10
a 46 47 3
a 47 46 3
a 47 59 4
a 59 47 4
a 47 48 5
a 48 47 5
a 48 60 8
a 60 48 8
a 49 61 4
a 61 49 4
a 49 50 9
a 50 49 9
a 50 62 1
a 62 50 1
a 50 51 4
a 51 50 4
a 51 63 7
a 63 51 7
a 51 52 3
a 52 51 3
a 52 64 5
a 64 52 5
a 52 53 8
a 53 52 8
a 53 65 7
a 65 53 7
a 53 54 10
a 54 53 10
a 54 66 4
a 66 54 4
a 54 55 8
a 55 54 8
a 55 67 1
a 67 55 1
a 55 56 7
a 56 55 7
a 56 68 10
a 68 56 10
a 56 57 5
a 57 56 5
a 57 69 7
a 69 57 7
a 57 58 10
a 58 57 10
a 58 70 2
a 70 58 2
a 58 59 7
a 59 58 7
a 59 71 2
a 71 59 2
a 59 60 1
a 60 59 1
a 60 72 8
a 72 60 8
a 61 73 6
a 73 61 6
a 61 62 8
a 62 61 8
a 62 74 1
a 74 62 1
a 62 63 5
a 63 62 5
a 63 75 6
a 75 63 6
a 63 64 3
a 64 63 3
a 64 76 1
a 76 64 1
a 64 65 1
a 65 64 1
a 65 77 5
a 77 65 5
a 65 66 9
a 66 65 9
a 66 78 10
a 78 66 10
a 66 67 6
a 67 66 6
a 67 79 3
a 79 67 3
a 67 68 10
a 68 67 10
a 68 80 3
a 80 68 3
a 68 69 10
a 69 68 10
a 69 81 5
a 81 69 5
a 69 70 7
a 70 69 7
a 70 82 7
a 82 70 7
a 70 71 5
a 71 70 5
a 71 83 6
a 83 71 6
a 71 72 5
a 72 71 5
a 72 84 5
a 84 72 5
a 73 85 2
a 85 73 2
a 73 74 10
a 74 73 10
a 74 86 9
a 86 74 9
a 74 75 2
a 75 74 2
a 75 87 8
a 87 75 8
a 75 76 7
a 76 75 7
a 76 88 2
a 88 76 2
a 76 77 7
a 77 76 7
a 77 89 10
a 89 77 10
a 77 78 8
a 78 77 8
a 78 90 2
a 90 78 2
a 78 79 4
a 79 78 4
a 79 91 7
a 91 79 7
a 79 80 3
a 80 79 3
a 80 92 1
a 92 80 1
a 80 81 4
a 81 80 4
a 81 93 9
a 93 81 9
a 81 82 5
a 82 81 5
a 82 94 3
a 94 82 3
a 82 83 2
a 83 82 2
a 83 95 3
a 95 83 3
a 83 84 6
a 84 83 6
a 84 96 1
a 96 84 1
a 85 97 4
a 97 85 4
a 85 86 1
a 86 85 1
a 86 98 1
a 98 86 1
a 86 87 8
a 87 86 8
a 87 99 8
a 99 87 8
a 87 88 2
a 88 87 2
a 88 100 4
a 100 88 4
a 88 89 5
a 89 88 5
a 89 101 1
a 101 89 1
a 89 90 4
a 90 89 4
a 90 102 10
a 102 90 10
a 90 91 2
a 91 90 2
a 91 103 5
a 103 91 5
a 91 92 8
a 92 91 8
a 92 104 1
a 104 92 1
a 92 93 5
a 93 92 5
a 93 105 3
a 105 93 3
a 93 94 8
a 94 93 8
a 94 106 9
a 106 94 9
a 94 95 1
a 95 94 1
a 95 107 9
a 107 95 9
a 95 96 4
a 96 95 4
a 96 108 9
a 108 96 9
a 97 109 6
a 109 97 6
a 97 98 1
a 98 97 1
a 98 110 5
a 110 98 5
a 98 99 6
a 99 98 6
a 99 111 4
a 111 99 4
a 99 100 5
a 100 99 5
a 100 112 6
a 112 100 6
a 100 101 7
a 101 100 7
a 101 113 1
a 113 101 1
a 101 102 1
a 102 101 1
a 102 114 5
a 114 102 5
a 102 103 9
a 103 102 9
a 103 115 3
a 115 103 3
a 103 104 1
a 104 103 1
a 104 116 8
a 116 104 8
a 104 105 2
a 105 104 2
a 105 117 5
a 117 105 5
a 105 106 1
a 106 105 1
a 106 118 1
a 118 106 1
a 106 107 7
a 107 106 7
a 107 119 6
a 119 107 6
a 107 108 8
a 108 107 8
a 108 120 9
a 120 108 9
a 109 121 2
a 121 109 2
a 109 110 9
a 110 109 9
a 110 122 10
a 122 110 10
a 110 111 2
a 111 110 2
a 111 123 1
a 123 111 1
a 111 112 8
a 112 111 8
a 112 124 9
a 124 112 9
a 112 113 6
a 113 112 6
a 113 125 4
a 125 113 4
a 113 114 9
a 114 113 9
a 114 126 8
a 126 114 8
a 114 115 7
a 115 114 7
a 115 127 8
a 127 115 8
a 115 116 9
a 116 115 9
a 116 128 10
a 128 116 10
a 116 117 3
a 117 116 3
a 117 129 7
a 129 117 7
a 117 118 6
a 118 117 6
a 118 130 9
a 130 118 9
a 118 119 3
a 119 118 3
a 119 131 4
a 131 119 4
a 119 120 2
a 120 119 2
a 120 132 5
a 132 120 5
a 121 133 6
a 133 121 6
a 121 122 9
a 122 121 9
a 122 134 2
a 134 122 2
a 122 123 3
a 123 122 3
a 123 135 4
a 135 123 4
a 123 124 8
a 124 123 8
a 124 136 1
a 136 124 1
a 124 125 1
a 125 124 1
a 125 137 4
a 137 125 4
a 125 126 1
a 126 125 1
a 126 138 2
a 138 126 2
a 126 127 8
a 127 126 8
a 127 139 9
a 139 127 9
a 127 128 4
a 128 127 4
a 128 140 7
a 140 128 7
a 128 129 9
a 129 128 9
a 129 141 10
a 141 129 10
a 129 130 7
a 130 129 7
a 130 142 7
a 142 130 7
a 130 131 6
a 131 130 6
a 131 143 5
a 143 131 5
a 131 132 5
a 132 131 5
a 132 144 2
a 144 132 2
a 133 134 8
a 134 133 8
a 134 135 5
a 135 134 5
a 135 136 6
a 136 135 6
a 136 137 8
a 137 136 8
a 137 138 1
a 138 137 1
a 138 139 6
a 139 138 6
a 139 140 3
a 140 139 3
a 140 141 4
a 141 140 4
a 141 142 8
a 142 141 8
a 142 143 9
a 143 142 9
a 143 144 2
a 144 143 2
